c --- [ banner ] -------------------------------------------------------------
c 
c CaDiCaL Radically Simplified CDCL SAT Solver
c Copyright (c) 2016-2021 A. Biere, M. Fleury, N. Froleyks
c 
c Version 1.5.2 a5f15211db36c3956764e18194dd5bd63bf3b5e6
c g++ (GCC) 9.3.0 -Wall -Wextra -O3 -DNDEBUG
c Fri Oct 21 01:27:37 EDT 2022 Linux gra-login3 3.10.0-1160.66.1.el7.x86_64 x86_64
c 
c --- [ limit ] --------------------------------------------------------------
c 
c setting conflict limit to 200000 conflicts (due to '200000')
c 
c --- [ parsing input ] ------------------------------------------------------
c 
c reading DIMACS file from '33.cubes3879.adj'
c opening file to read '33.cubes3879.adj'
c found 'p cnf 6160 1595475' header
c parsed 1595475 clauses in 19.19 seconds process time
c closing file '33.cubes3879.adj'
c after reading 1457566777 bytes 1390.0 MB
c 
c --- [ options ] ------------------------------------------------------------
c 
c all options are set to their default value
c 
c --- [ solving ] ------------------------------------------------------------
c 
c time measured in process time since initialization
c 
c  seconds    reductions  redundant   irredundant
c          MB     restarts       trail       variables
c            level   conflicts       glue         remaining
c 
c * 19.19 1385  0 0   0    0    0  0% 0 1595422 2344 38%
c { 20.73 1455  0 0   0    0    0  0% 0 1595422 2344 38%
c i 25.26 1532 359 0  13  133  124 31% 16 1595422 2335 38%
c - 32.61 1465 205 1  53  300  271 30% 33 457548 2335 38%
c i 32.85 1466 202 1  54  306  275 30% 32 457548 2334 38%
c i 32.92 1466 202 1  56  310  278 30% 33 457548 2333 38%
c i 33.83 1467 189 1  68  362  326 30% 34 457548 2332 38%
c i 33.83 1467 188 1  68  363  326 30% 34 457548 2331 38%
c i 33.98 1468 179 1  68  389  350 30% 33 457548 2330 38%
c i 33.99 1468 177 1  68  396  355 30% 33 457548 2329 38%
c i 34.14 1468 168 1  68  433  384 30% 33 457548 2328 38%
c i 34.30 1468 163 1  68  461  408 30% 33 457548 2327 38%
c i 34.43 1468 152 1  69  507  452 30% 33 457548 2326 38%
c i 34.45 1469 151 1  69  509  453 30% 33 457548 2325 38%
c i 34.55 1469 146 1  69  533  474 30% 33 457548 2324 38%
c i 34.83 1469 132 1  69  618  544 30% 31 457548 2323 38%
c i 35.73 1470 134 1  81  720  629 30% 35 457548 2321 38%
c i 35.78 1470 134 1  82  731  634 30% 35 457548 2297 37%
c i 37.43 1472 123 1 104  888  779 29% 35 457548 2295 37%
c } 37.61 1473 113 1 104 1000  876 29% 33 457548 2295 37%
c 
c  seconds    reductions  redundant  irredundant
c          MB     restarts       trail      variables
c            level   conflicts       glue        remaining
c 
c [ 37.61 1473  0 1 104 1000  876  0% 0 457548 2295 37%
c O 37.61 1473 14 1 104 1002  877 20% 11 457548 2295 37%
c i 37.61 1473 14 1 104 1002  877 20% 11 457548 2276 37%
c i 38.27 1474 25 1 104 1160 1003 32% 21 457548 2275 37%
c i 38.30 1474 25 1 104 1193 1021 32% 20 457548 2274 37%
c - 39.25 1568 25 2 104 1300  974 31% 20 389188 2274 37%
c i 39.72 1568 26 2 104 1483 1136 31% 21 389188 2273 37%
c i 39.77 1568 26 2 104 1528 1168 31% 21 389188 2272 37%
c i 39.79 1568 26 2 104 1541 1179 31% 21 389188 2271 37%
c i 39.84 1568 26 2 104 1588 1211 31% 21 389188 2270 37%
c i 40.13 1568 29 2 105 2149 1645 31% 24 389188 2269 37%
c - 40.81 1567 29 3 105 2731 1590 31% 25 389173 2269 37%
c ] 41.24 1566 29 3 105 3000 1760 50% 24 389173 2269 37%
c { 41.24 1566 113 3 105 3000 1760 79% 33 389173 2269 37%
c F 41.28 1566 112 3 105 3008 1768 79% 33 389173 2269 37%
c i 41.48 1566 110 3 105 3029 1787 79% 32 389173 2268 37%
c i 41.91 1566 75 3 105 3747 2355 67% 26 389173 2267 37%
c - 46.82 1566 72 4 236 4641 2196 59% 29 389167 2267 37%
c d 47.53 1566 66 4 244 5000 2429 58% 28 363519 2262 37%
c 3 47.56 1566 66 4 244 5000 3282 58% 28 363519 2262 37%
c 
c  seconds    reductions  redundant   irredundant
c          MB     restarts       trail       variables
c            level   conflicts       glue         remaining
c 
c 2 47.62 1566 66 4 244 5000 3340 58% 28 363519 2258 37%
c p 49.65 1566 66 4 244 5000 5883 58% 28 363519 2220 36%
c d 50.25 1566 66 4 244 5000 5854 58% 28 363402 2219 36%
c # 51.50 1566 58 4 294 6009 6589 55% 26 363402 2219 36%
c } 52.27 1566 50 4 295 7002 7211 54% 24 363402 2219 36%
c [ 52.27 1566 29 4 295 7002 7211 50% 24 363402 2219 36%
c - 52.54 1549 29 5 295 7028 2955 50% 25 363402 2219 36%
c - 53.94 1388 25 6 297 9836 3170 49% 21 363402 2219 36%
c I 54.14 1388 24 6 297 10011 3272 49% 20 363402 2219 36%
c - 57.35 1389 32 7 299 13113 4213 49% 26 363402 2219 36%
c p 60.84 1389 34 7 300 15000 9518 49% 28 363402 2219 36%
c ] 60.93 1389 34 7 300 15002 9520 49% 28 363402 2219 36%
c { 60.93 1389 50 7 300 15002 9520 54% 24 363402 2219 36%
c B 61.28 1389 51 7 303 15013 9531 54% 24 363402 2219 36%
c - 66.49 1389 46 8 401 16857 5345 52% 23 363402 2219 36%
c s 69.87 1389 43 8 491 18822 6765 52% 23 361138 2219 36%
c v 76.59 1389 43 8 491 18822 6765 52% 23 361115 2219 36%
c t 76.79 1389 43 8 491 18822 6742 52% 23 361106 2219 36%
c e 78.28 1391 43 8 491 18822 6274 52% 23 358919 1031 17%
c s 78.40 1391 43 8 491 18822 6273 52% 23 356612 1031 17%
c 
c  seconds    reductions   redundant   irredundant
c          MB     restarts        trail       variables
c            level    conflicts       glue         remaining
c 
c W 89.52 1392 46 8 754 21016 8049 64% 25 356612 1031 17%
c - 89.74 1392 45 9 762 21070 5904 64% 25 356612 1031 17%
c - 101.50 1392 44 10 1099 25728 6465 66% 26 356612 1031 17%
c F 102.84 1392 41 10 1099 28017 8125 67% 25 356612 1031 17%
c 3 109.99 1392 43 10 1331 30000 10244 67% 26 356612 1031 17%
c p 112.20 1392 43 10 1331 30000 12091 67% 26 356612 1031 17%
c - 113.47 1392 42 11 1362 30851 7322 67% 26 356612 1031 17%
c } 113.74 1392 42 11 1377 31002 7422 67% 26 356612 1031 17%
c [ 113.74 1392 34 11 1377 31002 7422 108% 28 356612 1031 17%
c B 116.35 1392 35 11 1380 36019 11068 92% 29 356612 1031 17%
c - 116.80 1392 35 12 1380 36439 7830 91% 29 356612 1031 17%
c ] 117.45 1392 35 12 1381 37926 8950 89% 29 356612 1031 17%
c 1 117.45 1392 35 12 1381 37926 8950 89% 29 356612 1031 17%
c 
c --- [ writing output ] -----------------------------------------------------
c 
c writing simplified CNF to DIMACS file 'simp/33.cubes3879.adj.simp1'
c * 117.45 1392 35 12 1381 37926 8950 89% 29 356612 1031 17%
c opening file to write 'simp/33.cubes3879.adj.simp1'
c writing 'p cnf 6160 356612' header
c closing file 'simp/33.cubes3879.adj.simp1'
c after writing 188781341 bytes 180.0 MB
c wrote 356612 clauses in 1.33 seconds process time
c 
c --- [ writing extension ] --------------------------------------------------
c 
c writing extension stack to 'simp/33.cubes3879.adj.ext1'
c opening file to write 'simp/33.cubes3879.adj.ext1'
c closing file 'simp/33.cubes3879.adj.ext1'
c after writing 82154 bytes 0.1 MB
c wrote 3638 witnesses in 0.00 seconds process time
c 
c --- [ result ] -------------------------------------------------------------
c 
s SATISFIABLE
c 
c --- [ run-time profiling ] -------------------------------------------------
c 
c process time taken by individual solving procedures
c (percentage relative to process time for solving)
c 
c        80.66   82.09% search
c        65.02   66.18% unstable
c        19.19   19.53% parse
c        17.60   17.91% simplify
c        13.82   14.06% stable
c         6.88    7.00% vivify
c         6.26    6.37% probe
c         2.79    2.84% elim
c         1.54    1.56% lucky
c         0.28    0.29% walk
c         0.23    0.23% subsume
c         0.14    0.14% ternary
c   =================================
c        98.26   82.72% solve
c 
c last line shows process time for solving
c (percentage relative to total process time)
c 
c --- [ statistics ] ---------------------------------------------------------
c 
c chronological:              8215        21.66 %  of conflicts
c conflicts:                 37926       385.99    per second
c decisions:                150407      1530.74    per second
c eliminated:                 1188        19.29 %  of all variables
c fixed:                       791        12.84 %  of all variables
c learned:                   36969        97.48 %  per conflict
c learned_lits:            6832467       100.00 %  learned literals
c minimized:                     0         0.00 %  learned literals
c shrunken:                4099772        60.00 %  learned literals
c minishrunken:             597592         8.75 %  learned literals
c propagations:            4633250         0.05 M  per second
c reduced:                   18949        49.96 %  per conflict
c rephased:                      8      4740.75    interval
c restarts:                   1381        27.46    interval
c stabilizing:                   3        44.62 %  of conflicts
c substituted:                   6         0.10 %  of all variables
c subsumed:                  13222         0.40 %  of all clauses
c strengthened:               2960         0.09 %  of all clauses
c ternary:                    2565         0.57 %  of resolved
c vivified:                     36         0.00 %  of all clauses
c walked:                        1     37926.00    interval
c weakened:                   2847         3.17    average size
c 
c seconds are measured in process time for solving
c 
c --- [ resources ] ----------------------------------------------------------
c 
c total process time since initialization:       118.78    seconds
c total real time since initialization:          119.14    seconds
c maximum resident set size of process:         1746.64    MB
c 
c --- [ shutting down ] ------------------------------------------------------
c 
c exit 10
WARNING! DIMACS header mismatch: wrong number of variables.
============================[ Problem Statistics ]=============================
|                                                                             |
|  Number of variables:          3758                                         |
|  Number of clauses:          356616                                         |
|  Parse time:                   2.46 s                                       |
|  Simplification time:          0.05 s                                       |
|                                                                             |
============================[ Search Statistics ]====================================================
| Conflicts |          ORIGINAL         |          LEARNT          | Num Sols |      SUBGRAPHS      |
|           |    Vars  Clauses Literals |    Limit  Clauses Lit/Cl |          | Canonical Noncanon. |
=====================================================================================================
|       183 |    3668   356699 40412382 |     2000      183     71 |        0 |        38        83 |
|       333 |    3668   356699 40412382 |     2000      333     89 |        0 |        38        83 |
|       673 |    3668   356814 40414493 |     2000      673     81 |        0 |        93       198 |
|      1253 |    3668   357057 40419527 |     2000     1253     80 |        0 |       180       441 |
|      1850 |    3668   357148 40420734 |     2000     1850     89 |        0 |       211       532 |
|      2823 |    3668   357362 40425352 |     3600     1823     53 |        0 |       250       746 |
|      4221 |    3668   357621 40430362 |     3600     3221     71 |        0 |       341      1005 |
|      6044 |    3668   357736 40432274 |     5004     3248     62 |        0 |       394      1120 |
|      8671 |    3668   357801 40434041 |     6314     3385     45 |        0 |       426      1185 |
|     12682 |    3668   357968 40437628 |     7559     4241     42 |        0 |       487      1352 |
|     18649 |    3668   358169 40442746 |     8785     6434     55 |        0 |       557      1553 |
|     27612 |    3668   358483 40450379 |    11201     6013     33 |        0 |       675      1867 |
|     40781 |    3668   358678 40454003 |    13614     7395     33 |        0 |       774      2062 |
|     62607 |    3668   361043 40502566 |    16003    15010     70 |        0 |      1582      4427 |
|     92647 |    3668   361891 40518137 |    19609    19256     65 |        0 |      1797      5275 |
|    137101 |    3668   362556 40532304 |    24420    20921     58 |        0 |      2038      5940 |
|    203439 |    3668   363210 40544752 |    30408    20247     40 |        0 |      2302      6594 |
|    304252 |    3668   365497 40588148 |    37610    20862     26 |        0 |      2822      8881 |
|    453218 |    3668   366674 40616368 |    46019    25637     30 |        0 |      3202     10058 |
|    677122 |    3668   368895 40668150 |    55615    48737     59 |        0 |      3767     12279 |
|   1013447 |    3668   372695 40753251 |    68826    46273     43 |        0 |      4781     16079 |
|   1518323 |    3668   378783 40894468 |    84419    57142     41 |        0 |      6393     22167 |
|   2271423 |    3668   383701 41002246 |   103619    63042     41 |        0 |      8068     27085 |
|   3405340 |    3668   395344 41258295 |   126427   110167     61 |        0 |     10813     38728 |
|   5097904 |    3668   404497 41486043 |   155220   120324     50 |        0 |     13519     47881 |
|   7630494 |    3668   411971 41716719 |   190029   158923     69 |        0 |     16761     55355 |
|  11434004 |    3668   427806 42182914 |   233226   164430     51 |        0 |     22310     71190 |
|  17133792 |    3668   446082 42775504 |   286033   166225     36 |        0 |     30648     89466 |
|  25679803 |    3668   469824 43570205 |   349631   306434     65 |        0 |     39758    113208 |
|  38612033 |    3668   618651 47423422 |   428826   414859     68 |       48 |     80097    261987 |
|  58333647 |    3668  1165160 61003016 |   528428   299475     34 |       74 |    185708    808470 |
|  87542172 |    3667  1609818 72087051 |   647227   441599     35 |       74 |    257475   1254337 |
=====================================================================================================
Number of solutions   : 74
Canonical subgraphs   : 321721         (5 /sec)
          order  3    : 1              (142857 /sec)
          order  4    : 1              (500000 /sec)
          order  5    : 1              (250000 /sec)
          order  6    : 1              (52632 /sec)
          order  7    : 1              (8621 /sec)
          order  8    : 1              (1006 /sec)
          order  9    : 2              (150 /sec)
          order 10    : 7              (37 /sec)
          order 11    : 35             (12 /sec)
          order 12    : 301            (5 /sec)
          order 13    : 1363           (2 /sec)
          order 14    : 9667           (3 /sec)
          order 15    : 65161          (5 /sec)
          order 16    : 200789         (5 /sec)
          order 17    : 36835          (4 /sec)
          order 18    : 6296           (4 /sec)
          order 19    : 848            (4 /sec)
          order 20    : 168            (4 /sec)
          order 21    : 169            (4 /sec)
          order 22    : 74             (0 /sec)
Noncanonical subgraphs: 1728380        (43 /sec)
          order  3    : 0              (-nan /sec)
          order  4    : 0              (-nan /sec)
          order  5    : 0              (-nan /sec)
          order  6    : 0              (-nan /sec)
          order  7    : 0              (-nan /sec)
          order  8    : 0              (-nan /sec)
          order  9    : 0              (-nan /sec)
          order 10    : 0              (-nan /sec)
          order 11    : 0              (-nan /sec)
          order 12    : 0              (-nan /sec)
          order 13    : 5234           (7538 /sec)
          order 14    : 37701          (2926 /sec)
          order 15    : 164298         (1916 /sec)
          order 16    : 363789         (263 /sec)
          order 17    : 1155150        (30 /sec)
          order 18    : 2006           (26 /sec)
          order 19    : 53             (12 /sec)
          order 20    : 0              (-nan /sec)
          order 21    : 0              (-nan /sec)
Canonicity checking   : 69327.2 s
Noncanonicity checking: 39876.6 s
Total canonicity time : 109204 s
database reductions   : 587
restarts              : 131070
conflicts             : 104652434      (613 /sec)
decisions             : 132223408      (0.00 % random) (774 /sec)
propagations          : 5702205246     (33376 /sec)
conflict literals     : 11470327096    (58.02 % deleted)
actual reward         : 0.234296
Memory used           : 1156.00 MB
CPU time              : 170845 s

UNSATISFIABLE
